silicon oxide - alpha                   
   1.00000000000000     
     4.9563030570962381    0.0000000000000000    0.0000000000000000
    -2.4781515285481190    4.2922843562854052    0.0000000000000000
     0.0000000000000000    0.0000000000000000    5.4378341658912213
   Si   O 
     3     6
Direct
  0.4782172323687774  0.0000000000000000  0.6666666810000024
  0.0000000269999987  0.4782172863687748  0.3333333630000013
  0.5217827526312249  0.5217827386312237  0.0000000000000000
  0.4178090460736357  0.2525790243153381  0.7987475158828872
  0.7474209856846628  0.1652300437582994  0.4654142848828897
  0.8347700052417011  0.5821909559263645  0.1320809118828876
  0.2525790373153356  0.4178090690736340  0.2012524621171110
  0.1652300717582946  0.7474210276846591  0.5345858471171070
  0.5821909399263632  0.8347699522417003  0.8679191221171081
 
  0.00000000E+00  0.00000000E+00  0.00000000E+00
  0.00000000E+00  0.00000000E+00  0.00000000E+00
  0.00000000E+00  0.00000000E+00  0.00000000E+00
  0.00000000E+00  0.00000000E+00  0.00000000E+00
  0.00000000E+00  0.00000000E+00  0.00000000E+00
  0.00000000E+00  0.00000000E+00  0.00000000E+00
  0.00000000E+00  0.00000000E+00  0.00000000E+00
  0.00000000E+00  0.00000000E+00  0.00000000E+00
  0.00000000E+00  0.00000000E+00  0.00000000E+00
